
List of user-set options:

                                    Name   Value                used
                          acceptable_tol = 1e-05                 yes
                        file_print_level = 5                     yes
                   hessian_approximation = limited-memory        yes
              limited_memory_max_history = 1000                  yes
                           linear_solver = mumps                 yes
                                max_iter = 200                   yes
                             output_file = output/IPOPT_summary.out  yes
                             print_level = 5                     yes
                      print_user_options = yes                   yes
                                      sb = yes                   yes
                        start_with_resto = yes                   yes
                                     tol = 1e-05                 yes
This is Ipopt version 3.13.4, running with linear solver mumps.
NOTE: Other linear solvers might be more efficient (see Ipopt documentation).

Number of nonzeros in equality constraint Jacobian...:     2184
Number of nonzeros in inequality constraint Jacobian.:    13635
Number of nonzeros in Lagrangian Hessian.............:        0

Total number of variables............................:      136
                     variables with only lower bounds:        0
                variables with lower and upper bounds:      136
                     variables with only upper bounds:        0
Total number of equality constraints.................:       17
Total number of inequality constraints...............:      101
        inequality constraints with only lower bounds:        0
   inequality constraints with lower and upper bounds:      101
        inequality constraints with only upper bounds:        0

iter    objective    inf_pr   inf_du lg(mu)  ||d||  lg(rg) alpha_du alpha_pr  ls
   0 -2.5944980e+00 5.59e-01 1.03e-01   0.0 0.00e+00    -  0.00e+00 0.00e+00   0
   1r-2.5944980e+00 5.59e-01 9.99e+02  -0.3 0.00e+00    -  0.00e+00 0.00e+00R  1
   2r-4.9852949e+00 2.61e-03 9.97e+02   1.9 2.98e+02    -  2.59e-03 2.20e-03f  1
   3 -5.1111972e+00 3.92e-03 1.45e-01  -1.1 1.48e-01    -  9.97e-01 1.00e+00h  1
   4 -5.1986027e+00 9.60e-04 7.35e-01  -7.0 1.51e-01    -  7.86e-01 1.00e+00f  1
   5 -5.2315413e+00 1.53e-03 2.79e+00  -2.3 4.27e-01    -  9.92e-01 1.00e+00F  1
   6 -5.3286107e+00 1.11e-02 3.51e-01  -2.7 2.47e-01    -  9.99e-01 1.00e+00f  1
   7 -5.4661554e+00 3.05e-04 2.92e-02  -3.2 2.02e-01    -  1.00e+00 1.00e+00h  1
   8 -5.4667053e+00 9.63e-04 4.05e-01  -2.7 1.52e+00    -  6.75e-01 1.18e-01f  3
   9 -5.5151187e+00 7.12e-04 4.76e-01  -3.4 1.54e-01    -  1.00e+00 1.00e+00h  1
iter    objective    inf_pr   inf_du lg(mu)  ||d||  lg(rg) alpha_du alpha_pr  ls
  10 -5.5361232e+00 8.45e-04 1.64e-01  -3.7 3.77e-01    -  1.00e+00 7.60e-01h  1
  11 -5.5528369e+00 6.52e-04 1.85e-01  -3.9 1.63e-01    -  1.00e+00 9.55e-01h  1
  12 -5.5639834e+00 1.15e-04 2.89e-02  -4.4 8.03e-02    -  1.00e+00 9.67e-01h  1
  13 -5.5676741e+00 9.62e-05 2.64e-02  -5.3 1.48e-01    -  1.00e+00 4.34e-01h  1
  14 -5.5695407e+00 1.33e-04 1.07e-02  -5.4 3.55e-01    -  1.00e+00 1.94e-01h  1
  15 -5.5725067e+00 1.31e-04 7.88e-03  -5.5 1.97e-01    -  1.00e+00 6.56e-01h  1
  16 -5.5735448e+00 1.32e-04 5.43e-02  -5.6 7.31e-01    -  1.00e+00 9.01e-02h  1
  17 -5.5753054e+00 1.10e-04 1.07e-02  -5.7 3.44e-01    -  1.00e+00 3.65e-01h  1
  18 -5.5759849e+00 9.95e-05 4.42e-02  -4.6 6.88e-01    -  1.00e+00 1.73e-01h  1
  19 -5.5740721e+00 1.74e-04 3.30e-02  -4.4 6.64e-01    -  1.00e+00 4.76e-01h  1
iter    objective    inf_pr   inf_du lg(mu)  ||d||  lg(rg) alpha_du alpha_pr  ls
  20 -5.5748674e+00 1.60e-04 9.08e-02  -4.6 1.19e-01    -  1.00e+00 1.00e+00h  1
  21 -5.5757067e+00 2.54e-05 4.26e-02  -4.6 6.85e-02    -  9.99e-01 1.00e+00h  1
  22 -5.5770979e+00 1.65e-05 3.12e-03  -5.5 5.75e-02    -  1.00e+00 5.50e-01h  1
  23 -5.5781095e+00 1.09e-05 8.40e-03  -6.4 1.18e-01    -  1.00e+00 6.56e-01h  1
  24 -5.5783349e+00 3.54e-05 2.54e-02  -5.9 3.08e-01    -  1.00e+00 5.45e-01h  1
  25 -5.5786395e+00 8.95e-05 2.45e-02  -5.9 5.36e-01    -  1.00e+00 6.43e-01h  1
  26 -5.5789185e+00 8.24e-05 3.35e-02  -5.4 4.97e-01    -  1.00e+00 1.90e-01h  1
  27 -5.5789857e+00 8.85e-05 5.34e-02  -5.1 4.41e-01    -  1.00e+00 3.90e-01h  1
  28 -5.5790403e+00 7.66e-05 5.02e-02  -5.4 1.33e-01    -  1.00e+00 1.00e+00h  1
  29 -5.5793972e+00 3.94e-05 2.86e-02  -5.6 6.66e-02    -  1.00e+00 5.50e-01h  1
iter    objective    inf_pr   inf_du lg(mu)  ||d||  lg(rg) alpha_du alpha_pr  ls
  30 -5.5798218e+00 5.54e-06 2.01e-03  -6.6 4.16e-02    -  1.00e+00 9.74e-01h  1
  31 -5.5798809e+00 6.27e-07 2.69e-03  -7.6 1.77e-02    -  1.00e+00 9.33e-01h  1
  32 -5.5799279e+00 3.74e-06 2.90e-03  -8.2 2.48e-01    -  1.00e+00 5.25e-01h  1
  33 -5.5799724e+00 4.57e-06 7.81e-04  -7.7 1.31e+00    -  1.00e+00 7.59e-02h  1
  34 -5.5799919e+00 4.67e-06 1.01e-02  -7.2 1.29e-01    -  1.00e+00 2.97e-01h  1
  35 -5.5798793e+00 2.63e-06 2.77e-03  -6.0 9.41e-02    -  1.00e+00 1.00e+00f  1
  36 -5.5798623e+00 1.30e-06 1.33e-02  -6.0 5.16e-02    -  1.00e+00 1.00e+00H  1
  37 -5.5799716e+00 2.12e-06 1.82e-03  -6.5 3.85e-02    -  1.00e+00 1.00e+00h  1
  38 -5.5799871e+00 1.68e-06 2.89e-04  -6.6 1.09e-02    -  1.00e+00 1.00e+00h  1
  39 -5.5800044e+00 1.05e-06 1.44e-03  -7.8 4.13e-02    -  1.00e+00 7.17e-01h  1
iter    objective    inf_pr   inf_du lg(mu)  ||d||  lg(rg) alpha_du alpha_pr  ls
  40 -5.5800092e+00 1.67e-07 2.33e-03  -8.1 2.23e-02    -  1.00e+00 1.00e+00h  1
  41 -5.5800183e+00 1.39e-06 2.42e-03  -7.8 2.04e-02    -  1.00e+00 1.00e+00h  1
  42 -5.5800209e+00 3.80e-06 1.61e-03  -8.4 7.26e-03    -  1.00e+00 9.98e-01h  1
  43 -5.5799977e+00 4.13e-06 3.24e-05  -9.2 5.46e-03    -  1.00e+00 1.00e+00h  1
  44 -5.5799998e+00 2.32e-07 6.73e-05  -9.3 2.01e-02    -  1.00e+00 1.00e+00h  1
  45 -5.5799822e+00 2.27e-07 1.63e-03  -9.7 3.84e-01    -  1.00e+00 1.00e+00H  1
  46 -5.5799932e+00 1.51e-06 6.09e-03  -8.7 2.61e-01    -  1.00e+00 4.98e-01h  2
  47 -5.5800153e+00 1.73e-06 2.38e-03  -8.9 2.40e-01    -  6.43e-01 4.61e-01h  1
  48 -5.5800298e+00 1.52e-07 2.83e-03  -8.9 2.80e-02    -  4.18e-03 1.00e+00f  1
  49 -5.5799949e+00 2.26e-06 7.22e-04  -7.8 3.38e-02    -  1.00e+00 1.00e+00h  1
iter    objective    inf_pr   inf_du lg(mu)  ||d||  lg(rg) alpha_du alpha_pr  ls
  50 -5.5800480e+00 2.32e-06 2.84e-04  -7.9 1.10e-01    -  9.06e-01 1.00e+00h  1
  51 -5.5800469e+00 1.84e-06 5.92e-04  -7.6 2.14e+00    -  1.00e+00 3.26e-02h  1
  52 -5.5800225e+00 6.07e-08 2.03e-04  -7.4 9.01e-02    -  1.00e+00 7.48e-01H  1
  53 -5.5800383e+00 1.34e-06 7.48e-04  -7.9 2.30e-02    -  1.00e+00 1.00e+00H  1
  54 -5.5800215e+00 7.23e-07 3.76e-05  -8.7 1.46e-02    -  1.00e+00 1.00e+00H  1
  55 -5.5800206e+00 4.81e-07 1.87e-05  -9.4 4.46e-03    -  1.00e+00 1.00e+00h  1
  56 -5.5800325e+00 6.18e-07 1.59e-05 -10.7 4.44e-03    -  1.00e+00 1.00e+00h  1
  57 -5.5800276e+00 2.49e-07 8.41e-06 -11.0 1.27e-03    -  1.00e+00 1.00e+00h  1

Number of Iterations....: 57

                                   (scaled)                 (unscaled)
Objective...............:  -5.5800276265581994e+00   -5.5800276265581994e+00
Dual infeasibility......:   8.4081276050982576e-06    8.4081276050982576e-06
Constraint violation....:   2.4903633177864037e-07    2.4903633177864037e-07
Complementarity.........:   1.0104429247848045e-11    1.0104429247848045e-11
Overall NLP error.......:   8.4081276050982576e-06    8.4081276050982576e-06


Number of objective function evaluations             = 74
Number of objective gradient evaluations             = 57
Number of equality constraint evaluations            = 74
Number of inequality constraint evaluations          = 74
Number of equality constraint Jacobian evaluations   = 58
Number of inequality constraint Jacobian evaluations = 58
Number of Lagrangian Hessian evaluations             = 0
Total CPU secs in IPOPT (w/o function evaluations)   =    753.567
Total CPU secs in NLP function evaluations           =  26127.139

EXIT: Optimal Solution Found.
